opti conp comp defe
cell
2.40 2.40 2.40 90.0 90.0 90.0
frac
O core 0 0 0
O shel 0 0 0
Ca core 0.5 0 0
Ca shel 0.5 0 0
space
225
include /home/ben/Documents/gulp_calcs/0_datafiles/na3ocl_khandy_potentials.inp 
