opti conp comp defe
cell
6.024 6.024 6.653 81.535 81.535 119.970
frac
Al core 0.16661700  0.16661700  0.00000000
Al core 0.83338300  0.83338300  0.00000000
Cl core 0.79547300  0.20452700  0.78873300
Cl core 0.20452700  0.79547300  0.21126700
Cl core 0.93150300  0.43168000  0.21036800
Cl core 0.43168000  0.93150300  0.78963200
Cl core 0.06849700  0.56832000  0.78963200
Cl core 0.56832000  0.06849700  0.21036800
Cl shel 0.79547300  0.20452700  0.78873300
Cl shel 0.20452700  0.79547300  0.21126700
Cl shel 0.93150300  0.43168000  0.21036800
Cl shel 0.43168000  0.93150300  0.78963200
Cl shel 0.06849700  0.56832000  0.78963200
Cl shel 0.56832000  0.06849700  0.21036800
space
1
include /home/ben/Documents/na3ocl_project/gulp_calcs/data/na3ocl_khandy_potentials.inp 