opti conp comp defe
cell
3.67593037 3.675930371 19.72198510 90.0 90.0 120.0
frac
Mg core 0 0 0
Mg shel 0 0 0
Cl core 0.66666667 0.33333333 0.06962933
Cl shel 0.66666667 0.33333333 0.06962933
space
166
include /home/ben/Documents/gulp_calcs/0_datafiles/na3ocl_khandy_potentials.inp 
