opti conp comp defe
cell
1.853 1.853 1.853 90.0 90.0 90.0
frac
Ba core 0 0 0
Ba shel 0 0 0
Cl core 0.25 0.25 0.25
Cl shel 0.25 0.25 0.25
space
225
include /home/ben/Documents/gulp_calcs/0_datafiles/na3ocl_khandy_potentials.inp 
