opti conp comp defe
cell
2.40 2.40 2.40 90.0 90.0 90.0
frac
O core 0 0 0
Ca core 0.5 0 0
space
225
include /home/ben/Documents/gulp/data_files/na3ocl_potentials.inp  
