opti conp comp defe
cell
4.212 4.212 4.212 90.0 90.0 90.0
frac
O core 0 0 0
O shel 0 0 0
Mg core 0.5 0 0
Mg shel 0.5 0 0
space
225
include /home/ben/Documents/gulp/data_files/na3ocl_potentials.inp  
