opti conp comp defe
cell
7.04722600 7.04722600 7.04722600 90.0 90.0 90.0
frac
Sr 0 0 0
Cl 0.25 0.25 0.25
space
225
include /home/ben/Documents/gulp/data_files/na3ocl_potentials.inp  
