opti conp comp defe
cell
7.286 7.286 7.446 59.414 59.414 61.827
fractional
Ga core 0.34474900 0.34474900 0.08430500
Ga core 0.65525100 0.65525100 0.91569500
Cl core 0.27874700 0.72125300 0.00000000
Cl core 0.72125300 0.27874700 0.00000000
Cl core 0.68943600 0.68943600 0.16491200
Cl core 0.31056400 0.31056400 0.83508800
Cl core 0.81309200 0.81309200 0.56936500
Cl core 0.18690800 0.18690800 0.43063500
Cl shel 0.27874700 0.72125300 0.00000000
Cl shel 0.72125300 0.27874700 0.00000000
Cl shel 0.68943600 0.68943600 0.16491200
Cl shel 0.31056400 0.31056400 0.83508800
Cl shel 0.81309200 0.81309200 0.56936500
Cl shel 0.18690800 0.18690800 0.43063500
space
1