opti conp comp defe
cell
5.20615200 5.20615200 5.20615200 90.0 90.0 90.0
frac
Sr 0 0 0
O 0.5 0 0
space
225
include /home/ben/Documents/gulp/data_files/na3ocl_potentials.inp  
